NAME : TA-Prioritized.4311.tour
COMMENT : Length = 4311
COMMENT : Found by LKH-3 [Keld Helsgaun] Tue Feb  6 12:24:19 2024
TYPE : TOUR
DIMENSION : 106
TOUR_SECTION
1
13
89
37
23
81
10
96
25
27
50
104
105
32
45
14
69
87
42
78
57
76
7
3
15
34
74
24
36
4
11
88
67
5
16
73
39
35
66
40
71
91
41
62
31
86
49
28
2
18
53
106
43
19
98
38
17
44
30
70
51
82
90
103
21
79
29
60
65
101
68
26
55
100
64
9
20
97
92
83
54
80
46
93
85
102
33
22
48
47
84
99
77
8
58
75
6
12
94
59
56
52
63
95
61
72
-1
EOF
